NAME : star100.tour
COMMENT : Lenght 1799.03
TYPE : TOUR
DIMENSION : 1799.032471
TOUR_SECTION
1
3
2
4
5
8
24
42
17
10
29
36
39
41
31
19
20
9
43
88
96
99
100
67
76
92
87
44
18
25
12
13
14
15
33
48
53
71
85
94
59
84
72
97
91
45
65
47
57
69
77
75
98
74
23
7
16
22
73
27
62
55
58
52
82
79
61
40
38
89
93
95
50
54
34
21
28
60
32
46
56
90
70
64
83
78
30
26
37
68
63
66
81
80
86
51
49
35
11
6
-1
EOF
